50
18105

308 922
509 999
223 279
501 288
399 767
131 763
670 857
203 501
145 544
743 906
81 141
176 301
48 952
883 389
366 186
277 67
480 139
179 254
852 5
155 444
224 749
542 442
419 680
424 438
12 312
772 955
457 197
15 31
227 470
602 688
462 471
284 535
752 272
424 419
143 592
708 429
98 246
643 75
698 586
766 905
16 282
678 950
886 295
84 508
427 449
520 655
12 390
626 19
531 893
135 218
